4 100 2341
8 8 14 17 4 14 13 11 8 11
3 3 3 4
4 2 4
2 6 3
1 4 7
9 2 3 9
0 35.0 35.0 0.0 0.0 0 230
2 41.0 49.0 10.0 10.0 0 204 5 0 0 0 0 0 1 0 0 0 0
3 35.0 17.0 10.0 7.0 0 202 65 0 0 0 1 1 0 0 1 0 0
4 55.0 45.0 10.0 13.0 0 197 87 1 1 1 1 0 0 0 1 0 0
5 55.0 20.0 10.0 19.0 149 159 45 0 0 0 0 0 0 1 0 0 0
6 15.0 30.0 10.0 26.0 0 199 78 1 0 1 1 0 1 0 0 1 1
7 25.0 30.0 10.0 3.0 0 208 99 1 1 0 0 0 0 0 1 0 0
8 20.0 50.0 10.0 5.0 0 198 45 1 0 0 1 1 1 0 0 1 1
9 10.0 43.0 10.0 9.0 95 105 52 0 0 0 1 0 0 0 0 0 0
10 55.0 60.0 10.0 16.0 97 107 92 0 0 0 1 0 0 1 1 1 0
11 30.0 60.0 10.0 16.0 0 194 25 1 0 1 0 0 0 0 0 0 0
12 20.0 65.0 10.0 12.0 67 77 99 0 0 0 1 0 0 0 0 0 0
13 50.0 35.0 10.0 19.0 0 205 8 1 1 1 0 0 0 0 0 0 0
14 30.0 25.0 10.0 23.0 159 169 46 0 0 0 0 0 0 0 0 1 1
15 15.0 10.0 10.0 20.0 0 187 68 1 0 0 0 0 1 1 1 0 0
16 30.0 5.0 10.0 8.0 61 71 61 0 1 0 0 0 0 1 0 0 1
17 10.0 20.0 10.0 19.0 0 190 64 1 1 0 1 1 0 0 0 0 1
18 5.0 30.0 10.0 2.0 0 189 53 0 1 1 0 0 1 0 0 1 0
19 20.0 40.0 10.0 12.0 0 204 93 0 0 1 0 1 0 0 0 0 0
20 15.0 60.0 10.0 17.0 0 187 68 1 0 0 1 0 0 0 0 0 1
21 45.0 65.0 10.0 9.0 0 188 96 0 0 0 0 0 1 0 0 0 0
22 45.0 20.0 10.0 11.0 0 201 89 0 0 0 0 1 1 0 1 1 0
23 45.0 10.0 10.0 18.0 0 193 45 0 0 0 1 0 1 0 1 0 0
24 55.0 5.0 10.0 29.0 68 78 91 0 0 0 0 0 1 0 0 0 0
25 65.0 35.0 10.0 3.0 0 190 21 0 1 0 1 0 0 0 0 0 0
26 65.0 20.0 10.0 6.0 172 182 35 0 0 1 1 0 0 0 0 0 0
27 45.0 30.0 10.0 17.0 0 208 91 0 0 0 0 0 1 0 0 0 0
28 35.0 40.0 10.0 16.0 0 215 32 0 0 1 0 0 1 0 0 0 0
29 41.0 37.0 10.0 16.0 0 213 89 0 0 0 1 0 0 1 1 0 0
30 64.0 42.0 10.0 9.0 0 190 84 1 1 1 1 0 0 1 1 0 0
31 40.0 60.0 10.0 21.0 0 194 22 1 0 0 1 0 0 0 0 0 1
32 31.0 52.0 10.0 27.0 0 202 29 1 0 0 1 0 0 0 1 0 0
33 35.0 69.0 10.0 23.0 0 186 38 0 0 0 0 0 0 0 0 1 0
34 53.0 52.0 10.0 11.0 0 195 50 0 0 1 0 0 0 0 0 1 0
35 65.0 55.0 10.0 14.0 0 183 81 0 1 0 0 1 0 0 0 0 1
36 63.0 65.0 10.0 8.0 0 178 28 0 0 0 0 0 0 1 0 1 0
37 2.0 60.0 10.0 5.0 0 178 37 0 0 1 0 0 0 0 0 0 0
38 20.0 20.0 10.0 8.0 0 198 74 1 0 0 0 0 0 0 1 0 1
39 5.0 5.0 10.0 16.0 83 93 2 0 0 0 0 1 0 0 0 0 1
40 60.0 12.0 10.0 31.0 0 186 10 0 1 0 1 0 0 0 0 1 0
41 40.0 25.0 10.0 9.0 0 208 19 0 0 0 0 0 1 0 0 0 0
42 42.0 7.0 10.0 5.0 0 191 84 0 0 0 0 1 0 0 0 1 0
43 24.0 12.0 10.0 5.0 0 194 83 1 0 0 0 0 0 1 0 0 0
44 23.0 3.0 10.0 7.0 0 185 43 0 1 1 0 0 0 0 0 0 0
45 11.0 14.0 10.0 18.0 69 79 36 0 0 0 0 0 1 0 0 0 0
46 6.0 38.0 10.0 16.0 0 190 12 1 0 0 0 0 0 1 0 0 0
47 2.0 48.0 10.0 1.0 0 184 4 0 0 0 1 0 0 0 0 0 0
48 8.0 56.0 10.0 27.0 0 185 16 0 0 0 0 0 0 0 1 1 0
49 13.0 52.0 10.0 36.0 0 192 88 0 0 0 0 0 0 0 1 0 0
50 6.0 68.0 10.0 30.0 0 176 56 0 0 0 0 0 1 0 0 0 0
51 47.0 47.0 10.0 13.0 0 203 85 0 0 0 0 0 1 0 0 0 0
52 49.0 58.0 10.0 10.0 0 193 63 0 0 0 0 0 1 0 0 0 0
53 27.0 43.0 10.0 9.0 0 208 31 0 0 0 0 0 0 1 0 0 0
54 37.0 31.0 10.0 14.0 95 105 60 0 0 0 0 0 0 0 1 0 0
55 57.0 29.0 10.0 18.0 0 197 79 0 0 0 0 0 1 0 0 0 0
56 63.0 23.0 10.0 2.0 136 146 40 0 0 1 0 0 0 0 1 0 0
57 53.0 12.0 10.0 6.0 0 190 77 0 0 0 0 1 0 0 0 0 1
58 32.0 12.0 10.0 7.0 0 196 42 1 1 0 1 0 0 1 0 0 0
59 36.0 26.0 10.0 18.0 200 210 76 0 0 0 1 0 1 1 0 0 0
60 21.0 24.0 10.0 28.0 0 202 81 0 0 1 1 0 1 1 0 0 0
61 17.0 34.0 10.0 3.0 0 201 67 0 0 0 0 0 0 0 1 1 0
62 12.0 24.0 10.0 13.0 0 194 80 0 0 0 0 0 1 0 0 0 1
63 24.0 58.0 10.0 19.0 58 68 12 0 0 0 0 0 1 0 1 0 1
64 27.0 69.0 10.0 10.0 0 185 12 0 0 0 0 0 1 0 0 0 0
65 15.0 77.0 10.0 9.0 0 173 97 0 1 1 0 0 0 0 0 1 0
66 62.0 77.0 10.0 20.0 0 170 27 0 0 0 0 0 1 0 0 1 0
67 49.0 73.0 10.0 25.0 0 179 63 0 0 0 0 0 0 0 0 0 1
68 67.0 5.0 10.0 25.0 83 93 85 0 0 1 0 0 0 1 0 0 0
69 56.0 39.0 10.0 36.0 0 198 21 0 0 1 0 0 0 0 0 0 0
70 37.0 47.0 10.0 6.0 50 60 27 0 0 0 0 0 1 0 0 0 0
71 37.0 56.0 10.0 5.0 0 198 77 1 0 1 0 0 0 0 0 0 0
72 57.0 68.0 10.0 15.0 0 180 99 0 0 0 0 0 0 0 1 0 0
73 47.0 16.0 10.0 25.0 0 197 96 0 0 1 0 0 0 0 1 0 1
74 44.0 17.0 10.0 9.0 0 199 31 0 0 1 1 0 0 1 0 0 0
75 46.0 13.0 10.0 8.0 149 159 12 0 0 1 0 0 0 0 0 0 0
76 49.0 11.0 10.0 18.0 0 192 28 0 0 0 0 0 0 1 0 0 0
77 49.0 42.0 10.0 13.0 73 83 33 1 1 0 1 1 1 0 0 1 0
78 53.0 43.0 10.0 14.0 179 189 4 0 0 0 0 1 0 0 0 0 0
79 61.0 52.0 10.0 3.0 0 188 9 0 0 0 0 0 0 0 0 0 1
80 57.0 48.0 10.0 23.0 92 102 52 0 1 1 0 0 0 1 1 0 0
81 56.0 37.0 10.0 6.0 0 198 96 1 0 1 0 0 0 1 1 0 1
82 55.0 54.0 10.0 26.0 0 192 53 0 0 0 0 0 1 0 0 0 1
83 15.0 47.0 10.0 16.0 0 196 18 0 0 0 0 0 1 1 0 0 0
84 14.0 37.0 10.0 11.0 0 198 40 1 0 0 0 0 0 1 0 0 0
85 11.0 31.0 10.0 7.0 101 111 69 0 0 0 0 0 0 0 1 0 0
86 16.0 22.0 10.0 41.0 0 196 61 0 0 1 1 1 0 1 0 0 0
87 4.0 18.0 10.0 35.0 0 184 76 0 1 0 1 0 0 1 0 0 1
88 28.0 18.0 10.0 26.0 93 103 51 0 1 1 0 0 0 0 0 0 0
89 26.0 52.0 10.0 9.0 0 200 53 0 0 0 0 0 1 0 0 0 0
90 26.0 35.0 10.0 15.0 0 211 4 0 1 0 1 0 1 0 0 0 0
91 31.0 67.0 10.0 3.0 0 187 49 1 0 0 1 0 0 0 1 0 1
92 15.0 19.0 10.0 1.0 0 194 42 0 0 1 1 0 0 0 0 0 0
93 22.0 22.0 10.0 2.0 18 28 92 1 0 0 0 0 0 0 1 0 0
94 18.0 24.0 10.0 22.0 0 199 1 0 0 0 0 0 0 0 0 1 0
95 26.0 27.0 10.0 27.0 0 207 29 0 0 0 0 0 1 0 0 0 0
96 25.0 24.0 10.0 20.0 0 205 78 0 1 0 1 0 1 1 1 0 0
97 22.0 27.0 10.0 11.0 0 204 86 1 1 0 1 0 0 0 0 0 1
98 25.0 21.0 10.0 12.0 0 202 5 0 0 0 0 0 0 0 0 1 0
99 19.0 21.0 10.0 10.0 0 198 64 0 0 0 0 1 1 0 0 1 0
100 20.0 26.0 10.0 9.0 83 93 74 0 0 1 0 0 0 1 0 0 1
101 18.0 18.0 10.0 17.0 185 195 69 0 0 0 1 0 0 1 0 0 0